decision_x1=[0,7];
decision_x2=[0,7];
decision_x3=[0,7];
decision_x4=[0,7];
decision_x5=[0,7];
decision_x6=[0,7];
decision_x7=[0,7];
decision_x8=[0,7];
decision_x9=[0,7];
decision_x10=[0,7];
decision_x11=[0,7];
decision_x12=[0,7];
decision_x13=[0,7];
decision_x14=[0,7];
decision_x15=[0,7];
decision_x16=[0,7];
random_y1=[0,7];
random_y2=[0,7];
random_y3=[0,7];
random_y4=[0,7];
random_y5=[0,7];
random_y6=[0,7];
random_y7=[0,7];
constraint_x2_x1=[
0,0,7.9|
0,1,3.8|
0,2,4.3|
0,3,3.2|
0,4,0.031|
0,5,7.1|
0,6,2.4|
0,7,2.8|
1,0,1.5|
1,1,4.9|
1,2,4.6|
1,3,8.4|
1,4,10|
1,5,2.7|
1,6,6.8|
1,7,6.9|
2,0,9.7|
2,1,9.7|
2,2,0.29|
2,3,9.3|
2,4,3.1|
2,5,9.9|
2,6,5.3|
2,7,1.3|
3,0,4.4|
3,1,9.9|
3,2,0.53|
3,3,0.49|
3,4,4.2|
3,5,4.9|
3,6,3.6|
3,7,5.4|
4,0,5.3|
4,1,7|
4,2,8.3|
4,3,7.3|
4,4,7.8|
4,5,0.19|
4,6,4.3|
4,7,9.9|
5,0,1.6|
5,1,6.5|
5,2,2.6|
5,3,8.2|
5,4,0.42|
5,5,3|
5,6,5|
5,7,4.4|
6,0,4.6|
6,1,0.78|
6,2,8.5|
6,3,3|
6,4,7.6|
6,5,1|
6,6,0.21|
6,7,0.54|
7,0,0.51|
7,1,2.2|
7,2,3.2|
7,3,7.3|
7,4,1.4|
7,5,7.6|
7,6,3.5|
7,7,3.3|
];
constraint_x3_x2=[
0,0,5.1|
0,1,9.2|
0,2,0.5|
0,3,5.9|
0,4,5.5|
0,5,4.8|
0,6,0.88|
0,7,4.2|
1,0,1.3|
1,1,6.1|
1,2,8.6|
1,3,4.1|
1,4,5.4|
1,5,8.3|
1,6,6.6|
1,7,3.2|
2,0,2.2|
2,1,5.7|
2,2,4.1|
2,3,0.38|
2,4,0.5|
2,5,1.4|
2,6,5|
2,7,7.2|
3,0,4.5|
3,1,2|
3,2,9.4|
3,3,3.8|
3,4,6.6|
3,5,2.3|
3,6,5|
3,7,5.7|
4,0,7.4|
4,1,8.4|
4,2,1.2|
4,3,6.1|
4,4,0.48|
4,5,3.9|
4,6,7.7|
4,7,7.1|
5,0,0.39|
5,1,3.8|
5,2,2.3|
5,3,8|
5,4,8|
5,5,2.6|
5,6,9.3|
5,7,9.1|
6,0,8.7|
6,1,2.5|
6,2,2.8|
6,3,1.9|
6,4,3.6|
6,5,6.4|
6,6,3.2|
6,7,8|
7,0,7|
7,1,2.7|
7,2,0.16|
7,3,4.7|
7,4,0.11|
7,5,1.7|
7,6,8|
7,7,9.6|
];
constraint_x4_x3=[
0,0,4|
0,1,5.9|
0,2,1.3|
0,3,3.7|
0,4,0.67|
0,5,0.9|
0,6,7.1|
0,7,4.5|
1,0,0.12|
1,1,9.2|
1,2,4|
1,3,4.4|
1,4,7.5|
1,5,4.9|
1,6,8.7|
1,7,4.9|
2,0,3.9|
2,1,3.2|
2,2,1.3|
2,3,3.4|
2,4,4.8|
2,5,5.1|
2,6,9.7|
2,7,0.81|
3,0,9.9|
3,1,3.9|
3,2,2.2|
3,3,2.4|
3,4,1.7|
3,5,3.1|
3,6,9.3|
3,7,1.6|
4,0,1.6|
4,1,1.4|
4,2,8.1|
4,3,6.2|
4,4,5.6|
4,5,5.7|
4,6,7|
4,7,4.6|
5,0,3.5|
5,1,3.4|
5,2,7|
5,3,0.48|
5,4,4.2|
5,5,7.6|
5,6,1.9|
5,7,5.6|
6,0,5.5|
6,1,9.4|
6,2,5.2|
6,3,1.8|
6,4,4.1|
6,5,5.5|
6,6,6.3|
6,7,4.7|
7,0,9.3|
7,1,3.2|
7,2,9.2|
7,3,8.6|
7,4,4.1|
7,5,1.2|
7,6,0.71|
7,7,3.5|
];
constraint_x5_x1=[
0,0,6|
0,1,9.6|
0,2,7.4|
0,3,6.2|
0,4,0.12|
0,5,7.9|
0,6,8.2|
0,7,7.6|
1,0,4.6|
1,1,4.6|
1,2,5.3|
1,3,8.3|
1,4,6.8|
1,5,9.3|
1,6,9.3|
1,7,1.2|
2,0,2.3|
2,1,3.3|
2,2,1.2|
2,3,6.8|
2,4,8.1|
2,5,2.5|
2,6,7.3|
2,7,2.8|
3,0,6.2|
3,1,5.7|
3,2,4.3|
3,3,5.1|
3,4,3.4|
3,5,6.4|
3,6,0.025|
3,7,0.45|
4,0,4|
4,1,2.3|
4,2,3.9|
4,3,2|
4,4,8.6|
4,5,4.8|
4,6,7.1|
4,7,0.34|
5,0,3.1|
5,1,2.9|
5,2,2.9|
5,3,4.7|
5,4,7.4|
5,5,4.7|
5,6,1.5|
5,7,2.8|
6,0,6.6|
6,1,0.93|
6,2,7.8|
6,3,6.8|
6,4,1.7|
6,5,0.04|
6,6,2.8|
6,7,6.3|
7,0,8.6|
7,1,6.4|
7,2,5.1|
7,3,1.2|
7,4,8.5|
7,5,5.2|
7,6,4.5|
7,7,7.5|
];
constraint_x6_x2=[
0,0,3.5|
0,1,6.3|
0,2,9.7|
0,3,4.9|
0,4,7.2|
0,5,7.5|
0,6,5.3|
0,7,2.6|
1,0,8.3|
1,1,5|
1,2,2.4|
1,3,1.3|
1,4,2.7|
1,5,4|
1,6,2.1|
1,7,2.1|
2,0,6.6|
2,1,0.46|
2,2,8.7|
2,3,3.7|
2,4,6.2|
2,5,6.9|
2,6,2.4|
2,7,1.1|
3,0,2.5|
3,1,8.8|
3,2,2.6|
3,3,0.65|
3,4,7|
3,5,8.4|
3,6,6.8|
3,7,9.1|
4,0,5.6|
4,1,1.8|
4,2,8|
4,3,9.7|
4,4,4.5|
4,5,1.8|
4,6,6.5|
4,7,1.7|
5,0,2.7|
5,1,9.9|
5,2,9.3|
5,3,9.2|
5,4,3.8|
5,5,3.7|
5,6,0.93|
5,7,4.5|
6,0,8|
6,1,0.37|
6,2,1.8|
6,3,1|
6,4,9.5|
6,5,6.3|
6,6,0.22|
6,7,0.6|
7,0,9.8|
7,1,2.4|
7,2,3.6|
7,3,2.3|
7,4,8.4|
7,5,9.4|
7,6,2.8|
7,7,4.6|
];
constraint_x6_x5=[
0,0,5.9|
0,1,9.7|
0,2,8.1|
0,3,1.2|
0,4,8.4|
0,5,1.9|
0,6,6.6|
0,7,0.96|
1,0,4.9|
1,1,3.1|
1,2,5.5|
1,3,5.5|
1,4,9.8|
1,5,0.75|
1,6,8|
1,7,9.5|
2,0,2.2|
2,1,4|
2,2,4.1|
2,3,9.6|
2,4,4.7|
2,5,3.1|
2,6,3.6|
2,7,3.8|
3,0,4.8|
3,1,8.9|
3,2,6.2|
3,3,1.8|
3,4,5.7|
3,5,5.1|
3,6,7.4|
3,7,5.7|
4,0,2.1|
4,1,0.03|
4,2,7.2|
4,3,2.5|
4,4,8.8|
4,5,9.7|
4,6,2.3|
4,7,1.6|
5,0,9.5|
5,1,4.5|
5,2,1.1|
5,3,7.1|
5,4,1.6|
5,5,3.7|
5,6,7.5|
5,7,1.9|
6,0,6.1|
6,1,8.2|
6,2,8.5|
6,3,9.8|
6,4,0.23|
6,5,2.6|
6,6,0.47|
6,7,6.3|
7,0,6.8|
7,1,6.3|
7,2,5.4|
7,3,4.3|
7,4,6.8|
7,5,9|
7,6,3.5|
7,7,3.7|
];
constraint_x7_x3=[
0,0,6.3|
0,1,6.1|
0,2,0.29|
0,3,7.2|
0,4,4|
0,5,2.9|
0,6,8.1|
0,7,5|
1,0,4.6|
1,1,4.9|
1,2,7.4|
1,3,2.7|
1,4,6.4|
1,5,8.6|
1,6,1.2|
1,7,3.7|
2,0,4.3|
2,1,6.6|
2,2,3.5|
2,3,0.8|
2,4,0.004|
2,5,1.4|
2,6,2|
2,7,0.81|
3,0,9.5|
3,1,7.4|
3,2,2.3|
3,3,2|
3,4,7.4|
3,5,8.4|
3,6,0.28|
3,7,6.2|
4,0,2.1|
4,1,7.8|
4,2,1|
4,3,1.3|
4,4,2|
4,5,3.1|
4,6,3|
4,7,0.23|
5,0,1.9|
5,1,6.9|
5,2,8.2|
5,3,5.7|
5,4,0.061|
5,5,6.7|
5,6,1.7|
5,7,8.8|
6,0,5.2|
6,1,6.1|
6,2,8.6|
6,3,8.9|
6,4,6|
6,5,3.2|
6,6,5.1|
6,7,2|
7,0,9.6|
7,1,0.68|
7,2,10|
7,3,0.55|
7,4,2.3|
7,5,9.6|
7,6,9.5|
7,7,4.5|
];
constraint_x7_x6=[
0,0,5.7|
0,1,2.1|
0,2,10|
0,3,4.3|
0,4,0.72|
0,5,5.7|
0,6,3.4|
0,7,1.4|
1,0,3.1|
1,1,7.4|
1,2,2.3|
1,3,4.1|
1,4,4.9|
1,5,2.8|
1,6,4.3|
1,7,8.4|
2,0,8.7|
2,1,9.8|
2,2,0.78|
2,3,5.4|
2,4,3.4|
2,5,9.1|
2,6,3.5|
2,7,8|
3,0,8.6|
3,1,9.7|
3,2,0.19|
3,3,6.5|
3,4,9.5|
3,5,2.2|
3,6,5.6|
3,7,6.1|
4,0,9.7|
4,1,8.6|
4,2,9.2|
4,3,1.2|
4,4,5.9|
4,5,9|
4,6,5|
4,7,1.9|
5,0,8.7|
5,1,3.1|
5,2,9.9|
5,3,6|
5,4,9.2|
5,5,5.5|
5,6,8.5|
5,7,6.6|
6,0,8.5|
6,1,7.2|
6,2,0.34|
6,3,2.4|
6,4,5.1|
6,5,7.7|
6,6,1.2|
6,7,6.3|
7,0,1.4|
7,1,7.5|
7,2,6.5|
7,3,5.7|
7,4,6.1|
7,5,6.1|
7,6,7.6|
7,7,2.6|
];
constraint_x8_x4=[
0,0,7.6|
0,1,1.9|
0,2,3.9|
0,3,7.8|
0,4,2.7|
0,5,2.1|
0,6,8|
0,7,9.7|
1,0,9.9|
1,1,8.6|
1,2,1.7|
1,3,7.5|
1,4,8.9|
1,5,6.4|
1,6,2.2|
1,7,1.9|
2,0,6.9|
2,1,1.8|
2,2,1.3|
2,3,1.1|
2,4,0.87|
2,5,1.8|
2,6,5|
2,7,7.7|
3,0,8.7|
3,1,5.9|
3,2,3.9|
3,3,4.7|
3,4,6.2|
3,5,0.93|
3,6,6.9|
3,7,5.4|
4,0,0.63|
4,1,6|
4,2,5|
4,3,5.3|
4,4,1.4|
4,5,2.1|
4,6,4.8|
4,7,3.2|
5,0,0.49|
5,1,2.8|
5,2,4.2|
5,3,4.1|
5,4,8.3|
5,5,7|
5,6,3.6|
5,7,6.5|
6,0,4|
6,1,10|
6,2,9.7|
6,3,1.1|
6,4,4.6|
6,5,8|
6,6,3.4|
6,7,2.8|
7,0,2.8|
7,1,9.9|
7,2,0.17|
7,3,7.6|
7,4,1.1|
7,5,7.6|
7,6,8.8|
7,7,9|
];
constraint_x8_x7=[
0,0,5.5|
0,1,3.8|
0,2,4.1|
0,3,0.64|
0,4,2.8|
0,5,8.6|
0,6,5.5|
0,7,9.5|
1,0,4.6|
1,1,3.9|
1,2,5.3|
1,3,3.5|
1,4,2.2|
1,5,7.3|
1,6,2.1|
1,7,4.3|
2,0,9.8|
2,1,6.4|
2,2,9|
2,3,8|
2,4,9|
2,5,2|
2,6,7.1|
2,7,3.8|
3,0,1|
3,1,5.8|
3,2,6|
3,3,7.4|
3,4,5.5|
3,5,5.5|
3,6,5.4|
3,7,8.1|
4,0,3.1|
4,1,6.9|
4,2,0.67|
4,3,3.7|
4,4,7.8|
4,5,2.7|
4,6,0.37|
4,7,1.6|
5,0,3.1|
5,1,7|
5,2,3.7|
5,3,4.4|
5,4,0.47|
5,5,4.3|
5,6,6.8|
5,7,8|
6,0,4.4|
6,1,4.5|
6,2,9.8|
6,3,1.7|
6,4,3.7|
6,5,7.1|
6,6,9.1|
6,7,7.6|
7,0,3.7|
7,1,4.6|
7,2,1.7|
7,3,1.5|
7,4,4.3|
7,5,4.5|
7,6,8.5|
7,7,1.3|
];
constraint_x9_x5=[
0,0,5.7|
0,1,8.9|
0,2,2.9|
0,3,6.1|
0,4,4.8|
0,5,9.6|
0,6,8.1|
0,7,4.6|
1,0,6.3|
1,1,6|
1,2,2.6|
1,3,4.3|
1,4,2|
1,5,2.4|
1,6,4.8|
1,7,3.7|
2,0,8.2|
2,1,5.1|
2,2,4.9|
2,3,2.2|
2,4,9.9|
2,5,1.3|
2,6,4.4|
2,7,8.7|
3,0,4.8|
3,1,4.2|
3,2,2|
3,3,0.12|
3,4,6.8|
3,5,7.5|
3,6,0.43|
3,7,5.1|
4,0,6.5|
4,1,7.6|
4,2,5.4|
4,3,8|
4,4,5|
4,5,7.7|
4,6,6.9|
4,7,4|
5,0,1|
5,1,9.7|
5,2,6|
5,3,0.76|
5,4,6.9|
5,5,5.4|
5,6,1|
5,7,3.3|
6,0,9.5|
6,1,2.1|
6,2,5.2|
6,3,4.4|
6,4,2.4|
6,5,5.8|
6,6,0.37|
6,7,9.5|
7,0,7.9|
7,1,0.7|
7,2,6.6|
7,3,6.1|
7,4,4.8|
7,5,9.8|
7,6,2.6|
7,7,8.1|
];
constraint_x10_x6=[
0,0,2.7|
0,1,2.1|
0,2,5.5|
0,3,9.4|
0,4,4.3|
0,5,1.6|
0,6,4.2|
0,7,9.8|
1,0,4|
1,1,5.3|
1,2,7.8|
1,3,1.6|
1,4,8.2|
1,5,3.3|
1,6,4.9|
1,7,4.1|
2,0,0.7|
2,1,1.2|
2,2,4.7|
2,3,5.6|
2,4,1.4|
2,5,6.6|
2,6,7.6|
2,7,5.1|
3,0,7.9|
3,1,0.96|
3,2,4.2|
3,3,7.6|
3,4,7.3|
3,5,3.4|
3,6,2.5|
3,7,7.4|
4,0,8.3|
4,1,3.9|
4,2,6.4|
4,3,8.4|
4,4,6.4|
4,5,0.19|
4,6,8|
4,7,0.88|
5,0,1.9|
5,1,4.4|
5,2,9|
5,3,6.7|
5,4,3.1|
5,5,4.6|
5,6,3.3|
5,7,5.5|
6,0,8.3|
6,1,6.3|
6,2,0.27|
6,3,8.6|
6,4,4.4|
6,5,1.5|
6,6,3.5|
6,7,5.7|
7,0,8.8|
7,1,0.3|
7,2,3.4|
7,3,1.2|
7,4,4.9|
7,5,9.9|
7,6,1|
7,7,6.6|
];
constraint_x10_x9=[
0,0,3.3|
0,1,0.42|
0,2,8.7|
0,3,5.3|
0,4,2.6|
0,5,5.3|
0,6,6.3|
0,7,8.1|
1,0,9.7|
1,1,3.3|
1,2,6.2|
1,3,5.9|
1,4,0.12|
1,5,4.3|
1,6,9.1|
1,7,0.06|
2,0,6|
2,1,7.7|
2,2,6.1|
2,3,0.37|
2,4,2|
2,5,2.2|
2,6,3.8|
2,7,8.3|
3,0,3.1|
3,1,8.1|
3,2,9.9|
3,3,1.7|
3,4,5.9|
3,5,1.3|
3,6,8|
3,7,1.7|
4,0,9|
4,1,8|
4,2,7|
4,3,4.2|
4,4,8.5|
4,5,0.8|
4,6,1.2|
4,7,5.2|
5,0,7|
5,1,2.1|
5,2,6|
5,3,9.2|
5,4,1.7|
5,5,5.9|
5,6,1.9|
5,7,0.89|
6,0,8|
6,1,5.1|
6,2,1.1|
6,3,5.7|
6,4,2.8|
6,5,8.1|
6,6,5.1|
6,7,6|
7,0,0.3|
7,1,7.7|
7,2,4.5|
7,3,0.95|
7,4,0.47|
7,5,7.2|
7,6,6.3|
7,7,7.6|
];
constraint_x11_x7=[
0,0,0.015|
0,1,6.3|
0,2,0.91|
0,3,7.6|
0,4,0.16|
0,5,1.6|
0,6,8.6|
0,7,8.2|
1,0,7.9|
1,1,4.8|
1,2,8.7|
1,3,3.6|
1,4,2|
1,5,7.5|
1,6,9.1|
1,7,7.8|
2,0,2.8|
2,1,5.7|
2,2,3.1|
2,3,2.9|
2,4,6.7|
2,5,8.7|
2,6,0.43|
2,7,3.9|
3,0,6.7|
3,1,5.6|
3,2,9.3|
3,3,3.1|
3,4,5.7|
3,5,3.4|
3,6,4.6|
3,7,4|
4,0,3.5|
4,1,9.9|
4,2,4.9|
4,3,3.7|
4,4,4.3|
4,5,0.25|
4,6,9|
4,7,6.5|
5,0,2.9|
5,1,8.5|
5,2,6.3|
5,3,0.73|
5,4,9.6|
5,5,6.1|
5,6,2.3|
5,7,7.9|
6,0,0.39|
6,1,3.6|
6,2,4.9|
6,3,6.6|
6,4,5.3|
6,5,6.7|
6,6,1.8|
6,7,0.5|
7,0,4|
7,1,5.3|
7,2,7|
7,3,2.4|
7,4,0.5|
7,5,3.3|
7,6,9.4|
7,7,5.8|
];
constraint_x11_x10=[
0,0,0.42|
0,1,7.7|
0,2,3.5|
0,3,2.3|
0,4,7.1|
0,5,8.8|
0,6,6.5|
0,7,6.9|
1,0,3.7|
1,1,9.7|
1,2,3.6|
1,3,1.2|
1,4,5|
1,5,8.2|
1,6,7.7|
1,7,2.2|
2,0,2.3|
2,1,0.84|
2,2,6.6|
2,3,4.2|
2,4,7.8|
2,5,9.3|
2,6,1.3|
2,7,3|
3,0,3.4|
3,1,4.5|
3,2,5.2|
3,3,0.27|
3,4,4.7|
3,5,9.1|
3,6,8.1|
3,7,0.47|
4,0,9.2|
4,1,9.2|
4,2,7.3|
4,3,4.9|
4,4,8.9|
4,5,9.2|
4,6,5|
4,7,5|
5,0,9.8|
5,1,3.5|
5,2,5.9|
5,3,0.95|
5,4,2.1|
5,5,0.59|
5,6,0.36|
5,7,3.1|
6,0,3.6|
6,1,9|
6,2,3.7|
6,3,3.3|
6,4,0.1|
6,5,4.8|
6,6,8.2|
6,7,4.3|
7,0,6.6|
7,1,8|
7,2,6|
7,3,6|
7,4,10|
7,5,3.5|
7,6,4.5|
7,7,4.9|
];
constraint_x12_x8=[
0,0,4.2|
0,1,3.9|
0,2,4.7|
0,3,0.59|
0,4,6.3|
0,5,8.4|
0,6,0.21|
0,7,8.1|
1,0,9|
1,1,4.1|
1,2,8.7|
1,3,4.4|
1,4,0.7|
1,5,0.62|
1,6,2|
1,7,7.2|
2,0,8|
2,1,8.8|
2,2,1.1|
2,3,3.3|
2,4,1|
2,5,2.3|
2,6,6.3|
2,7,7|
3,0,9.4|
3,1,3.5|
3,2,0.72|
3,3,2.6|
3,4,0.043|
3,5,2.3|
3,6,2.5|
3,7,3.7|
4,0,7.5|
4,1,0.25|
4,2,8.1|
4,3,9.8|
4,4,0.98|
4,5,9.9|
4,6,8.1|
4,7,8.9|
5,0,2.1|
5,1,6.4|
5,2,0.91|
5,3,6.2|
5,4,9.2|
5,5,10|
5,6,2.9|
5,7,7.5|
6,0,3.7|
6,1,5.4|
6,2,2.1|
6,3,5.8|
6,4,5.2|
6,5,5.1|
6,6,6.9|
6,7,9.7|
7,0,3.5|
7,1,2.8|
7,2,7.9|
7,3,9.6|
7,4,0.95|
7,5,7.3|
7,6,5.8|
7,7,0.65|
];
constraint_x12_x11=[
0,0,3|
0,1,5.1|
0,2,1.5|
0,3,5.8|
0,4,6.8|
0,5,9.7|
0,6,8.8|
0,7,0.84|
1,0,9.5|
1,1,6|
1,2,7.3|
1,3,4.2|
1,4,5|
1,5,8.3|
1,6,6.5|
1,7,6.3|
2,0,9.6|
2,1,4.8|
2,2,7.5|
2,3,0.1|
2,4,3.1|
2,5,7.5|
2,6,6.8|
2,7,4.9|
3,0,5.4|
3,1,7.2|
3,2,4.3|
3,3,7.5|
3,4,3.1|
3,5,6.9|
3,6,0.012|
3,7,1.2|
4,0,7.2|
4,1,5.4|
4,2,4.1|
4,3,9.8|
4,4,3.7|
4,5,1.6|
4,6,5.3|
4,7,0.55|
5,0,7.7|
5,1,9|
5,2,5.2|
5,3,4.3|
5,4,8.1|
5,5,5.6|
5,6,3.2|
5,7,4.1|
6,0,3.9|
6,1,3.5|
6,2,5.3|
6,3,8.3|
6,4,4.2|
6,5,1.7|
6,6,0.3|
6,7,6.3|
7,0,9.2|
7,1,1.5|
7,2,0.5|
7,3,9.5|
7,4,4.9|
7,5,9.1|
7,6,9|
7,7,5.9|
];
constraint_x13_x9=[
0,0,4.7|
0,1,2.4|
0,2,3.7|
0,3,1.4|
0,4,8.7|
0,5,6.6|
0,6,3.4|
0,7,8.6|
1,0,9.6|
1,1,6.8|
1,2,5.5|
1,3,1.8|
1,4,0.81|
1,5,1.2|
1,6,8.2|
1,7,7.1|
2,0,0.85|
2,1,6.1|
2,2,7.3|
2,3,7.1|
2,4,5.8|
2,5,2.8|
2,6,7.5|
2,7,5.3|
3,0,9.6|
3,1,3.5|
3,2,1.8|
3,3,2.5|
3,4,9.1|
3,5,10|
3,6,7|
3,7,0.57|
4,0,6.9|
4,1,1.7|
4,2,0.87|
4,3,3|
4,4,7.3|
4,5,5.1|
4,6,4.4|
4,7,0.23|
5,0,1.6|
5,1,0.54|
5,2,3.1|
5,3,0.33|
5,4,9.5|
5,5,2.9|
5,6,9.8|
5,7,0.0078|
6,0,1.1|
6,1,9.6|
6,2,9.4|
6,3,5.7|
6,4,4.6|
6,5,4.1|
6,6,1.3|
6,7,3.9|
7,0,1.9|
7,1,0.86|
7,2,5.8|
7,3,0.81|
7,4,1.4|
7,5,1.2|
7,6,0.99|
7,7,1.7|
];
constraint_x14_x10=[
0,0,2.7|
0,1,2.8|
0,2,4.2|
0,3,3.4|
0,4,5.1|
0,5,0.69|
0,6,0.76|
0,7,2.4|
1,0,9.3|
1,1,5.5|
1,2,7.7|
1,3,8.7|
1,4,1.7|
1,5,8.5|
1,6,7.7|
1,7,3.8|
2,0,5.3|
2,1,3.1|
2,2,3.1|
2,3,6.5|
2,4,3.2|
2,5,1.4|
2,6,1.5|
2,7,5.7|
3,0,6.8|
3,1,7.4|
3,2,5.3|
3,3,2|
3,4,0.66|
3,5,3|
3,6,8.4|
3,7,0.69|
4,0,4.9|
4,1,9|
4,2,7.8|
4,3,6.6|
4,4,6.3|
4,5,3.9|
4,6,9|
4,7,2.2|
5,0,1.1|
5,1,0.6|
5,2,4.7|
5,3,6.4|
5,4,0.61|
5,5,5.2|
5,6,4.2|
5,7,1|
6,0,4.6|
6,1,9.9|
6,2,9.3|
6,3,9|
6,4,8.1|
6,5,5|
6,6,3.6|
6,7,6.8|
7,0,1.9|
7,1,2|
7,2,2.1|
7,3,2.2|
7,4,3.2|
7,5,1.4|
7,6,8.2|
7,7,2.9|
];
constraint_x15_x11=[
0,0,3.5|
0,1,4.1|
0,2,7.4|
0,3,4.5|
0,4,1.9|
0,5,8.7|
0,6,7.4|
0,7,5.4|
1,0,1.7|
1,1,4.1|
1,2,9.4|
1,3,1.9|
1,4,3.8|
1,5,7.9|
1,6,6.3|
1,7,9.9|
2,0,9.7|
2,1,4.6|
2,2,0.78|
2,3,7.8|
2,4,2.8|
2,5,3.1|
2,6,8.8|
2,7,9.8|
3,0,1|
3,1,0.8|
3,2,5.9|
3,3,5.4|
3,4,1.3|
3,5,9.6|
3,6,5.3|
3,7,0.25|
4,0,3.4|
4,1,8.2|
4,2,3.5|
4,3,4|
4,4,3.9|
4,5,3|
4,6,6|
4,7,6|
5,0,9.4|
5,1,2|
5,2,0.69|
5,3,9.6|
5,4,1.7|
5,5,2.3|
5,6,1.6|
5,7,6.5|
6,0,3.2|
6,1,3.2|
6,2,2.6|
6,3,5.6|
6,4,0.76|
6,5,2.4|
6,6,9.9|
6,7,0.39|
7,0,5.3|
7,1,2.5|
7,2,7.9|
7,3,7.3|
7,4,1.1|
7,5,4.7|
7,6,7.6|
7,7,1.2|
];
constraint_x16_x12=[
0,0,9.5|
0,1,6.2|
0,2,0.8|
0,3,6.2|
0,4,6.2|
0,5,8.5|
0,6,6.3|
0,7,9.8|
1,0,2.8|
1,1,7.8|
1,2,6.7|
1,3,6.8|
1,4,0.13|
1,5,2.9|
1,6,8.8|
1,7,3.8|
2,0,5.4|
2,1,4.8|
2,2,7.8|
2,3,1.4|
2,4,7.6|
2,5,7.7|
2,6,9.2|
2,7,5.6|
3,0,2.5|
3,1,4.1|
3,2,9.5|
3,3,8.8|
3,4,2.7|
3,5,6.6|
3,6,2.9|
3,7,10|
4,0,8.9|
4,1,7.9|
4,2,5.9|
4,3,7.8|
4,4,3.8|
4,5,6.3|
4,6,8.9|
4,7,3.3|
5,0,3.5|
5,1,7|
5,2,5.9|
5,3,5|
5,4,3.7|
5,5,3.9|
5,6,7.6|
5,7,8|
6,0,2.2|
6,1,1.7|
6,2,0.57|
6,3,4.1|
6,4,9.7|
6,5,1.7|
6,6,9.9|
6,7,9.6|
7,0,9.5|
7,1,7.7|
7,2,8.1|
7,3,2.5|
7,4,4|
7,5,3|
7,6,9.2|
7,7,4|
];
constraint_x1_y1=[
0,0,5.4|
0,1,6.4|
0,2,0.79|
0,3,6.5|
0,4,8.7|
0,5,6.6|
0,6,7.6|
0,7,4.9|
1,0,5.3|
1,1,8.5|
1,2,7.7|
1,3,1.9|
1,4,10|
1,5,3.1|
1,6,8.3|
1,7,3.5|
2,0,5.6|
2,1,2.2|
2,2,0.32|
2,3,9|
2,4,4|
2,5,4.7|
2,6,4.1|
2,7,3.4|
3,0,9.9|
3,1,5.3|
3,2,5.2|
3,3,7.1|
3,4,2.2|
3,5,5.2|
3,6,2.6|
3,7,5.5|
4,0,10|
4,1,1.9|
4,2,9.6|
4,3,5.1|
4,4,7.6|
4,5,8.1|
4,6,6.2|
4,7,5.6|
5,0,1.1|
5,1,3.4|
5,2,6.3|
5,3,4.2|
5,4,5|
5,5,2.5|
5,6,3.4|
5,7,4.2|
6,0,8.4|
6,1,5.7|
6,2,8.1|
6,3,8.8|
6,4,1.3|
6,5,7.4|
6,6,0.71|
6,7,1.1|
7,0,6.2|
7,1,9.6|
7,2,4.4|
7,3,2.5|
7,4,9.6|
7,5,9.1|
7,6,8.5|
7,7,6.8|
];
constraint_x2_y2=[
0,0,1.5|
0,1,3|
0,2,6.4|
0,3,8.5|
0,4,5.3|
0,5,2|
0,6,4.2|
0,7,3.6|
1,0,9.7|
1,1,0.77|
1,2,4.5|
1,3,9.8|
1,4,4.1|
1,5,7.7|
1,6,2.6|
1,7,5.9|
2,0,2.1|
2,1,9.3|
2,2,3.3|
2,3,8|
2,4,3.5|
2,5,6.2|
2,6,7.1|
2,7,3.8|
3,0,0.39|
3,1,6.7|
3,2,5.1|
3,3,9.3|
3,4,0.75|
3,5,7.9|
3,6,2.2|
3,7,5.8|
4,0,3.9|
4,1,0.76|
4,2,1.6|
4,3,5.5|
4,4,1.7|
4,5,9.5|
4,6,6.6|
4,7,3.2|
5,0,7.2|
5,1,1.3|
5,2,0.85|
5,3,9.3|
5,4,10|
5,5,6.9|
5,6,1.6|
5,7,1.8|
6,0,9.3|
6,1,4.7|
6,2,2.6|
6,3,7.8|
6,4,1.1|
6,5,3.9|
6,6,4.6|
6,7,6|
7,0,1.1|
7,1,5.9|
7,2,0.15|
7,3,5.7|
7,4,4.7|
7,5,6.7|
7,6,6.7|
7,7,8|
];
constraint_x3_y3=[
0,0,3.4|
0,1,0.15|
0,2,4.2|
0,3,1.3|
0,4,7.1|
0,5,3.5|
0,6,1.4|
0,7,9|
1,0,8|
1,1,1.1|
1,2,6.8|
1,3,9.8|
1,4,5.8|
1,5,7.9|
1,6,8.1|
1,7,6.5|
2,0,8.6|
2,1,8.1|
2,2,5.7|
2,3,0.42|
2,4,8.6|
2,5,6.3|
2,6,3.1|
2,7,7.4|
3,0,6.1|
3,1,2.2|
3,2,9.7|
3,3,0.23|
3,4,9.2|
3,5,7.2|
3,6,5.2|
3,7,6.8|
4,0,5|
4,1,2.8|
4,2,6.3|
4,3,0.28|
4,4,8.2|
4,5,2|
4,6,3.5|
4,7,6.4|
5,0,0.57|
5,1,6.5|
5,2,4.5|
5,3,4.5|
5,4,8.4|
5,5,1.8|
5,6,7.6|
5,7,8.7|
6,0,2.2|
6,1,9.4|
6,2,1.8|
6,3,9.6|
6,4,7.9|
6,5,7.1|
6,6,0.72|
6,7,6|
7,0,8.2|
7,1,8.2|
7,2,9.8|
7,3,4.7|
7,4,4.5|
7,5,6.7|
7,6,6.4|
7,7,9.8|
];
constraint_x4_y4=[
0,0,7.1|
0,1,6.2|
0,2,9.2|
0,3,9.4|
0,4,6.5|
0,5,1.5|
0,6,3.5|
0,7,6.5|
1,0,5.4|
1,1,4.8|
1,2,5.9|
1,3,3.3|
1,4,4.2|
1,5,4.9|
1,6,8.6|
1,7,5.3|
2,0,8.3|
2,1,9.8|
2,2,9.8|
2,3,1.1|
2,4,9.2|
2,5,3.1|
2,6,7.7|
2,7,9.6|
3,0,6.2|
3,1,8|
3,2,0.95|
3,3,2.6|
3,4,3.8|
3,5,7.9|
3,6,3.4|
3,7,6.3|
4,0,2|
4,1,0.1|
4,2,7.7|
4,3,0.14|
4,4,7.4|
4,5,6.8|
4,6,6.4|
4,7,9.8|
5,0,0.8|
5,1,4.9|
5,2,6.4|
5,3,5|
5,4,6.3|
5,5,6.2|
5,6,0.61|
5,7,9.9|
6,0,5.5|
6,1,7|
6,2,6.7|
6,3,9.5|
6,4,9.7|
6,5,6.9|
6,6,7.8|
6,7,6.3|
7,0,1.4|
7,1,2.5|
7,2,3.1|
7,3,0.7|
7,4,6|
7,5,1.7|
7,6,8|
7,7,5|
];
constraint_x5_y5=[
0,0,7|
0,1,0.25|
0,2,5.1|
0,3,0.36|
0,4,2.8|
0,5,2.4|
0,6,2|
0,7,3.7|
1,0,3.2|
1,1,6.9|
1,2,2|
1,3,8.1|
1,4,0.55|
1,5,9.1|
1,6,3.4|
1,7,5.1|
2,0,3.4|
2,1,8.7|
2,2,2.1|
2,3,0.27|
2,4,8.1|
2,5,6.5|
2,6,6.4|
2,7,9.5|
3,0,1.4|
3,1,2.3|
3,2,2.7|
3,3,7.5|
3,4,0.77|
3,5,6.5|
3,6,2.1|
3,7,4.2|
4,0,5.2|
4,1,2.1|
4,2,9.5|
4,3,0.69|
4,4,0.071|
4,5,3.9|
4,6,1.3|
4,7,4|
5,0,2.2|
5,1,4.1|
5,2,3.5|
5,3,6.2|
5,4,7.9|
5,5,3.9|
5,6,6.3|
5,7,0.87|
6,0,8|
6,1,2.2|
6,2,0.33|
6,3,9.9|
6,4,9.4|
6,5,0.56|
6,6,0.41|
6,7,2.9|
7,0,9.8|
7,1,5.9|
7,2,2|
7,3,5|
7,4,1.7|
7,5,0.83|
7,6,4|
7,7,7.5|
];
constraint_x6_y6=[
0,0,0.082|
0,1,1.6|
0,2,8.2|
0,3,6.1|
0,4,3.3|
0,5,4.2|
0,6,5.6|
0,7,4.7|
1,0,8.5|
1,1,1.4|
1,2,5.2|
1,3,1.4|
1,4,0.56|
1,5,1.9|
1,6,2.6|
1,7,1|
2,0,4.4|
2,1,3.8|
2,2,3.1|
2,3,9.5|
2,4,8.4|
2,5,9.3|
2,6,8.1|
2,7,0.88|
3,0,9.9|
3,1,5.3|
3,2,6.2|
3,3,8.3|
3,4,4.6|
3,5,3.5|
3,6,9.7|
3,7,3.8|
4,0,2.1|
4,1,2.4|
4,2,8.2|
4,3,7.8|
4,4,1|
4,5,9.4|
4,6,8|
4,7,5.2|
5,0,8.5|
5,1,10|
5,2,2.5|
5,3,6.5|
5,4,0.04|
5,5,9.7|
5,6,5.6|
5,7,4.4|
6,0,4.8|
6,1,1.8|
6,2,1.4|
6,3,3.9|
6,4,7.9|
6,5,7.6|
6,6,9.6|
6,7,4.3|
7,0,1|
7,1,4.4|
7,2,3|
7,3,7.5|
7,4,3.9|
7,5,3.4|
7,6,1.8|
7,7,6|
];
constraint_x7_y7=[
0,0,2.1|
0,1,3.1|
0,2,4.4|
0,3,5.5|
0,4,9.1|
0,5,0.58|
0,6,8.4|
0,7,5|
1,0,5.6|
1,1,1.6|
1,2,3.7|
1,3,3.9|
1,4,2.6|
1,5,7.3|
1,6,4|
1,7,0.46|
2,0,9.2|
2,1,5.6|
2,2,8.3|
2,3,0.15|
2,4,9.4|
2,5,9.6|
2,6,1.7|
2,7,6.1|
3,0,8.5|
3,1,9|
3,2,6.2|
3,3,1.8|
3,4,9.8|
3,5,8.1|
3,6,3.7|
3,7,3|
4,0,0.48|
4,1,2.5|
4,2,6.5|
4,3,2.8|
4,4,4.5|
4,5,4.8|
4,6,1.1|
4,7,6.3|
5,0,5.8|
5,1,5.3|
5,2,9.4|
5,3,3.5|
5,4,6.3|
5,5,6.3|
5,6,6.3|
5,7,8.8|
6,0,3.9|
6,1,0.54|
6,2,4.7|
6,3,6.9|
6,4,6.7|
6,5,10|
6,6,2.3|
6,7,7.9|
7,0,8.3|
7,1,2|
7,2,6.6|
7,3,5.9|
7,4,0.77|
7,5,7.7|
7,6,1.7|
7,7,3.5|
];
initial_distribution_y1=[0.22,0.11,0.25,0.061,0.0042,0.029,0.096,0.23];
initial_distribution_y2=[0.18,0.044,0.18,0.077,0.021,0.1,0.15,0.24];
initial_distribution_y3=[0.16,0.21,0.2,0.13,0.062,0.044,0.13,0.062];
initial_distribution_y4=[0.14,0.051,0.14,0.12,0.15,0.055,0.16,0.18];
initial_distribution_y5=[0.029,0.04,0.25,0.22,0.11,0.042,0.12,0.19];
initial_distribution_y6=[0.18,0.19,0.13,0.14,0.05,0.18,0.092,0.041];
initial_distribution_y7=[0.11,0.0092,0.014,0.25,0.23,0.067,0.071,0.24];
transition_y1=[
0.18,0.14,0.041,0.054,0.02,0.13,0.22,0.21|
0.0086,0.19,0.078,0.14,0.073,0.15,0.23,0.12|
0.039,0.059,0.15,0.15,0.22,0.24,0.0066,0.14|
0.23,0.037,0.23,0.2,0.037,0.13,0.026,0.11|
0.2,0.12,0.026,0.23,0.05,0.094,0.1,0.18|
0.087,0.19,0.13,0.091,0.23,0.055,0.2,0.018|
0.015,0.12,0.05,0.19,0.14,0.064,0.28,0.14|
0.22,0.16,0.0097,0.15,0.097,0.18,0.017,0.16|
];
transition_y2=[
0.054,0.1,0.15,0.18,0.11,0.12,0.19,0.1|
0.24,0.13,0.1,0.15,0.21,0.029,0.085,0.059|
0.07,0.22,0.12,0.094,0.22,0.03,0.0072,0.24|
0.2,0.04,0.23,0.13,0.13,0.068,0.076,0.13|
0.26,0.033,0.091,0.19,0.25,0.11,0.028,0.043|
0.14,0.026,0.041,0.11,0.015,0.16,0.3,0.21|
0.2,0.21,0.059,0.047,0.21,0.085,0.047,0.14|
0.031,0.17,0.086,0.13,0.13,0.11,0.17,0.17|
];
transition_y3=[
0.16,0.059,0.13,0.15,0.14,0.16,0.13,0.076|
0.11,0.21,0.18,0.21,0.03,0.04,0.18,0.052|
0.21,0.085,0.074,0.28,0.045,0.11,0.2,0.0033|
0.26,0.13,0.008,0.26,0.06,0.016,0.12,0.15|
0.018,0.21,0.22,0.041,0.13,0.16,0.1,0.12|
0.043,0.095,0.2,0.24,0.089,0.021,0.24,0.066|
0.15,0.078,0.099,0.14,0.18,0.15,0.14,0.055|
0.078,0.13,0.11,0.23,0.05,0.34,0.032,0.016|
];
transition_y4=[
0.13,0.19,0.1,0.063,0.28,0.091,0.13,0.013|
0.015,0.23,0.18,0.25,0.24,0.018,0.021,0.045|
0.22,0.21,0.11,0.2,0.097,0.0064,0.034,0.12|
0.04,0.068,0.19,0.14,0.18,0.14,0.19,0.066|
0.021,0.12,0.15,0.21,0.028,0.21,0.15,0.12|
0.072,0.0093,0.18,0.15,0.16,0.28,0.13,0.016|
0.2,0.17,0.1,0.022,0.12,0.16,0.14,0.087|
0.24,0.14,0.13,0.13,0.03,0.024,0.29,0.017|
];
transition_y5=[
0.15,0.17,0.14,0.082,0.061,0.036,0.19,0.18|
0.088,0.036,0.039,0.021,0.21,0.093,0.31,0.2|
0.046,0.098,0.1,0.21,0.21,0.046,0.12,0.18|
0.19,0.19,0.077,0.08,0.12,0.16,0.098,0.083|
0.14,0.047,0.092,0.22,0.01,0.17,0.25,0.07|
0.026,0.05,0.05,0.3,0.11,0.19,0.036,0.23|
0.076,0.039,0.11,0.034,0.21,0.3,0.046,0.19|
0.039,0.16,0.12,0.14,0.055,0.27,0.04,0.18|
];
transition_y6=[
0.08,0.12,0.13,0.079,0.087,0.13,0.21,0.15|
0.12,0.094,0.2,0.029,0.087,0.19,0.14,0.14|
0.14,0.22,0.045,0.0026,0.15,0.19,0.11,0.15|
0.063,0.21,0.055,0.17,0.19,0.21,0.065,0.036|
0.19,0.18,0.0055,0.15,0.094,0.17,0.07,0.14|
0.051,0.2,0.035,0.21,0.14,0.017,0.21,0.15|
0.13,0.092,0.23,0.092,0.17,0.05,0.23,0.014|
0.18,0.11,0.18,0.11,0.12,0.17,0.093,0.039|
];
transition_y7=[
0.012,0.15,0.25,0.061,0.2,0.022,0.041,0.27|
0.088,0.17,0.16,0.2,0.21,0.041,0.0073,0.12|
0.044,0.12,0.31,0.043,0.13,0.058,0.18,0.12|
0.046,0.048,0.15,0.2,0.21,0.14,0.15,0.067|
0.21,0.15,0.068,0.19,0.14,0.11,0.091,0.046|
0.097,0.04,0.14,0.22,0.2,0.18,0.0071,0.12|
0.17,0.05,0.23,0.19,0.023,0.056,0.23,0.052|
0.15,0.19,0.15,0.073,0.089,0.14,0.17,0.037|
];
